512928 61228.3
97733.3 452924
5968.99 573134
504027 62663
97293.4 457629
127040 440311
95811.7 459716
60408.2 506222
92588.9 462962
434154 134726
96789.7 458908
429566 136306
298963 268569
192361 385747
316465 251874
6120.44 566674
469966 106834
318526 250550
474465 105600
39685.6 546145
377663 209088
166853 413160
53197.3 519145
379053 188054
503568 63542
210024 347996
503993 62682.5
231112 343503
74415.3 497095
114667 448302
288825 295578
207996 356662
334294 224092
41965 536622
485130 86016.2
206001 357959
212311 346454
21496.1 556014
306320 258931
86184.1 472899
241343 323184
198118 369931
311047 256103
246058 317421
349986 212736
425802 139671
286686 299886
41976.6 520331
348034 216088
171076 406714
331856 228322
251578 308829
165453 416777
244537 319455
208776 354159
344789 216456
242181 323184
183112 390691
